p cnf 13 22
-13 -12 1 0
13 10 -8 0
13 6 2 0
-13 -5 -3 0
13 -4 -3 0
-13 -4 2 0
-12 10 9 0
12 9 7 0
-12 -6 -4 0
12 6 4 0
-11 -9 8 0
11 9 -6 0
11 -5 -3 0
11 3 2 0
10 -6 3 0
10 -4 -2 0
9 5 3 0
-9 4 1 0
9 2 -1 0
-8 5 2 0
-5 4 1 0
5 -3 2 0
